(set-info :smt-lib-version 2.6)
(set-logic UF)
(set-info :source |Benchmarks from the paper: "Extending Sledgehammer with SMT Solvers" by Jasmin Blanchette, Sascha Bohme, and Lawrence C. Paulson, CADE 2011.  Translated to SMT2 by Andrew Reynolds and Morgan Deters.|)
(set-info :category "industrial")
(set-info :status sat)
(declare-sort S1 0)
(declare-sort S2 0)
(declare-sort S3 0)
(declare-sort S4 0)
(declare-sort S5 0)
(declare-sort S6 0)
(declare-sort S7 0)
(declare-sort S8 0)
(declare-sort S9 0)
(declare-sort S10 0)
(declare-fun f1 () S1)
(declare-fun f2 () S1)
(declare-fun f3 (S2 S3) S1)
(declare-fun f4 (S4 S3) S2)
(declare-fun f5 () S4)
(declare-fun f6 () S3)
(declare-fun f7 () S3)
(declare-fun f8 (S6 S5) S1)
(declare-fun f9 (S7 S5) S6)
(declare-fun f10 () S7)
(declare-fun f11 (S8 S3) S3)
(declare-fun f12 (S9 S5) S5)
(declare-fun f13 () S8)
(declare-fun f14 () S5)
(declare-fun f15 () S8)
(declare-fun f16 (S10 S3) S8)
(declare-fun f17 () S10)
(declare-fun f18 () S5)
(declare-fun f19 () S3)
(declare-fun f20 () S5)
(declare-fun f21 () S3)
(declare-fun f22 () S7)
(declare-fun f23 () S4)
(declare-fun f24 () S5)
(assert (not (= f1 f2)))
(assert (not (= (f3 (f4 f5 f6) f7) f1)))
(assert (forall ((?v0 S3) (?v1 S3)) (or (= (f3 (f4 f5 ?v0) ?v1) f1) (or (= ?v0 ?v1) (= (f3 (f4 f5 ?v1) ?v0) f1)))))
(assert (forall ((?v0 S3)) (not (= (f3 (f4 f5 ?v0) ?v0) f1))))
(assert (forall ((?v0 S5)) (not (= (f8 (f9 f10 ?v0) ?v0) f1))))
(assert (forall ((?v0 S3) (?v1 S3)) (= (not (= ?v0 ?v1)) (or (= (f3 (f4 f5 ?v0) ?v1) f1) (= (f3 (f4 f5 ?v1) ?v0) f1)))))
(assert (forall ((?v0 S5) (?v1 S5)) (= (not (= ?v0 ?v1)) (or (= (f8 (f9 f10 ?v0) ?v1) f1) (= (f8 (f9 f10 ?v1) ?v0) f1)))))
(assert (forall ((?v0 S3) (?v1 S3)) (= (not (= (f3 (f4 f5 ?v0) ?v1) f1)) (or (= (f3 (f4 f5 ?v1) ?v0) f1) (= ?v0 ?v1)))))
(assert (forall ((?v0 S5) (?v1 S5)) (= (not (= (f8 (f9 f10 ?v0) ?v1) f1)) (or (= (f8 (f9 f10 ?v1) ?v0) f1) (= ?v0 ?v1)))))
(assert (forall ((?v0 S3) (?v1 S3)) (or (= (f3 (f4 f5 ?v0) ?v1) f1) (or (= ?v0 ?v1) (= (f3 (f4 f5 ?v1) ?v0) f1)))))
(assert (forall ((?v0 S5) (?v1 S5)) (or (= (f8 (f9 f10 ?v0) ?v1) f1) (or (= ?v0 ?v1) (= (f8 (f9 f10 ?v1) ?v0) f1)))))
(assert (forall ((?v0 S3) (?v1 S3)) (=> (not (= (f3 (f4 f5 ?v0) ?v1) f1)) (= (not (= (f3 (f4 f5 ?v1) ?v0) f1)) (= ?v1 ?v0)))))
(assert (forall ((?v0 S5) (?v1 S5)) (=> (not (= (f8 (f9 f10 ?v0) ?v1) f1)) (= (not (= (f8 (f9 f10 ?v1) ?v0) f1)) (= ?v1 ?v0)))))
(assert (forall ((?v0 S3) (?v1 S3)) (=> (not (= ?v0 ?v1)) (=> (=> (= (f3 (f4 f5 ?v0) ?v1) f1) false) (=> (=> (= (f3 (f4 f5 ?v1) ?v0) f1) false) false)))))
(assert (forall ((?v0 S5) (?v1 S5)) (=> (not (= ?v0 ?v1)) (=> (=> (= (f8 (f9 f10 ?v0) ?v1) f1) false) (=> (=> (= (f8 (f9 f10 ?v1) ?v0) f1) false) false)))))
(assert (forall ((?v0 S3) (?v1 S3)) (=> (not (= ?v0 ?v1)) (=> (=> (= (f3 (f4 f5 ?v0) ?v1) f1) false) (=> (=> (= (f3 (f4 f5 ?v1) ?v0) f1) false) false)))))
(assert (forall ((?v0 S3) (?v1 S3)) (=> (= (f3 (f4 f5 ?v0) ?v1) f1) (not (= ?v0 ?v1)))))
(assert (forall ((?v0 S5) (?v1 S5)) (=> (= (f8 (f9 f10 ?v0) ?v1) f1) (not (= ?v0 ?v1)))))
(assert (forall ((?v0 S3) (?v1 S3)) (=> (= (f3 (f4 f5 ?v0) ?v1) f1) (not (= (f3 (f4 f5 ?v1) ?v0) f1)))))
(assert (forall ((?v0 S5) (?v1 S5)) (=> (= (f8 (f9 f10 ?v0) ?v1) f1) (not (= (f8 (f9 f10 ?v1) ?v0) f1)))))
(assert (forall ((?v0 S3) (?v1 S3)) (=> (= (f3 (f4 f5 ?v0) ?v1) f1) (= (not (= (f3 (f4 f5 ?v1) ?v0) f1)) true))))
(assert (forall ((?v0 S5) (?v1 S5)) (=> (= (f8 (f9 f10 ?v0) ?v1) f1) (= (not (= (f8 (f9 f10 ?v1) ?v0) f1)) true))))
(assert (forall ((?v0 S3) (?v1 S3)) (=> (= (f3 (f4 f5 ?v0) ?v1) f1) (= (= ?v0 ?v1) false))))
(assert (forall ((?v0 S5) (?v1 S5)) (=> (= (f8 (f9 f10 ?v0) ?v1) f1) (= (= ?v0 ?v1) false))))
(assert (forall ((?v0 S3) (?v1 S3)) (=> (=> (= (f3 (f4 f5 ?v0) ?v1) f1) false) (=> (=> (= ?v0 ?v1) false) (=> (=> (= (f3 (f4 f5 ?v1) ?v0) f1) false) false)))))
(assert (forall ((?v0 S5) (?v1 S5)) (=> (=> (= (f8 (f9 f10 ?v0) ?v1) f1) false) (=> (=> (= ?v0 ?v1) false) (=> (=> (= (f8 (f9 f10 ?v1) ?v0) f1) false) false)))))
(assert (forall ((?v0 S3) (?v1 S3)) (=> (= (f3 (f4 f5 ?v0) ?v1) f1) (=> (=> (not false) (= (f3 (f4 f5 ?v1) ?v0) f1)) false))))
(assert (forall ((?v0 S5) (?v1 S5)) (=> (= (f8 (f9 f10 ?v0) ?v1) f1) (=> (=> (not false) (= (f8 (f9 f10 ?v1) ?v0) f1)) false))))
(assert (forall ((?v0 S3) (?v1 S3) (?v2 S3)) (let ((?v_0 (f4 f5 ?v2))) (=> (= (f3 (f4 f5 ?v0) ?v1) f1) (=> (= (f3 ?v_0 ?v0) f1) (= (f3 ?v_0 ?v1) f1))))))
(assert (forall ((?v0 S5) (?v1 S5) (?v2 S5)) (let ((?v_0 (f9 f10 ?v2))) (=> (= (f8 (f9 f10 ?v0) ?v1) f1) (=> (= (f8 ?v_0 ?v0) f1) (= (f8 ?v_0 ?v1) f1))))))
(assert (forall ((?v0 S3) (?v1 S3) (?v2 S3)) (let ((?v_0 (f4 f5 ?v0))) (=> (= (f3 ?v_0 ?v1) f1) (=> (= (f3 (f4 f5 ?v1) ?v2) f1) (= (f3 ?v_0 ?v2) f1))))))
(assert (forall ((?v0 S5) (?v1 S5) (?v2 S5)) (let ((?v_0 (f9 f10 ?v0))) (=> (= (f8 ?v_0 ?v1) f1) (=> (= (f8 (f9 f10 ?v1) ?v2) f1) (= (f8 ?v_0 ?v2) f1))))))
(assert (forall ((?v0 S3) (?v1 S3) (?v2 S3)) (=> (= (f3 (f4 f5 ?v0) ?v1) f1) (=> (= ?v0 ?v2) (= (f3 (f4 f5 ?v2) ?v1) f1)))))
(assert (forall ((?v0 S5) (?v1 S5) (?v2 S5)) (=> (= (f8 (f9 f10 ?v0) ?v1) f1) (=> (= ?v0 ?v2) (= (f8 (f9 f10 ?v2) ?v1) f1)))))
(assert (forall ((?v0 S3) (?v1 S3) (?v2 S3)) (let ((?v_0 (f4 f5 ?v0))) (=> (= (f3 ?v_0 ?v1) f1) (=> (= ?v1 ?v2) (= (f3 ?v_0 ?v2) f1))))))
(assert (forall ((?v0 S5) (?v1 S5) (?v2 S5)) (let ((?v_0 (f9 f10 ?v0))) (=> (= (f8 ?v_0 ?v1) f1) (=> (= ?v1 ?v2) (= (f8 ?v_0 ?v2) f1))))))
(assert (forall ((?v0 S3) (?v1 S3) (?v2 S3)) (let ((?v_0 (f4 f5 ?v2))) (=> (= ?v0 ?v1) (=> (= (f3 ?v_0 ?v1) f1) (= (f3 ?v_0 ?v0) f1))))))
(assert (forall ((?v0 S5) (?v1 S5) (?v2 S5)) (let ((?v_0 (f9 f10 ?v2))) (=> (= ?v0 ?v1) (=> (= (f8 ?v_0 ?v1) f1) (= (f8 ?v_0 ?v0) f1))))))
(assert (forall ((?v0 S3) (?v1 S3) (?v2 S3)) (=> (= ?v0 ?v1) (=> (= (f3 (f4 f5 ?v1) ?v2) f1) (= (f3 (f4 f5 ?v0) ?v2) f1)))))
(assert (forall ((?v0 S5) (?v1 S5) (?v2 S5)) (=> (= ?v0 ?v1) (=> (= (f8 (f9 f10 ?v1) ?v2) f1) (= (f8 (f9 f10 ?v0) ?v2) f1)))))
(assert (forall ((?v0 S3) (?v1 S3)) (=> (= (f3 (f4 f5 ?v0) ?v1) f1) (=> (= (f3 (f4 f5 ?v1) ?v0) f1) false))))
(assert (forall ((?v0 S5) (?v1 S5)) (=> (= (f8 (f9 f10 ?v0) ?v1) f1) (=> (= (f8 (f9 f10 ?v1) ?v0) f1) false))))
(assert (forall ((?v0 S3) (?v1 S3)) (=> (= (f3 (f4 f5 ?v0) ?v1) f1) (=> (= (f3 (f4 f5 ?v1) ?v0) f1) false))))
(assert (forall ((?v0 S5) (?v1 S5)) (=> (= (f8 (f9 f10 ?v0) ?v1) f1) (=> (= (f8 (f9 f10 ?v1) ?v0) f1) false))))
(assert (forall ((?v0 S3) (?v1 S3) (?v2 S1)) (=> (= (f3 (f4 f5 ?v0) ?v1) f1) (= (=> (= (f3 (f4 f5 ?v1) ?v0) f1) (= ?v2 f1)) true))))
(assert (forall ((?v0 S5) (?v1 S5) (?v2 S1)) (=> (= (f8 (f9 f10 ?v0) ?v1) f1) (= (=> (= (f8 (f9 f10 ?v1) ?v0) f1) (= ?v2 f1)) true))))
(assert (forall ((?v0 S3) (?v1 S3)) (=> (= (f3 (f4 f5 ?v0) ?v1) f1) (= (= ?v1 ?v0) false))))
(assert (forall ((?v0 S5) (?v1 S5)) (=> (= (f8 (f9 f10 ?v0) ?v1) f1) (= (= ?v1 ?v0) false))))
(assert (forall ((?v0 S3) (?v1 S8) (?v2 S3) (?v3 S3)) (=> (= ?v0 (f11 ?v1 ?v2)) (=> (= (f3 (f4 f5 ?v3) ?v2) f1) (=> (forall ((?v4 S3) (?v5 S3)) (=> (= (f3 (f4 f5 ?v5) ?v4) f1) (= (f3 (f4 f5 (f11 ?v1 ?v5)) (f11 ?v1 ?v4)) f1))) (= (f3 (f4 f5 (f11 ?v1 ?v3)) ?v0) f1))))))
(assert (forall ((?v0 S5) (?v1 S9) (?v2 S5) (?v3 S5)) (=> (= ?v0 (f12 ?v1 ?v2)) (=> (= (f8 (f9 f10 ?v3) ?v2) f1) (=> (forall ((?v4 S5) (?v5 S5)) (=> (= (f8 (f9 f10 ?v5) ?v4) f1) (= (f8 (f9 f10 (f12 ?v1 ?v5)) (f12 ?v1 ?v4)) f1))) (= (f8 (f9 f10 (f12 ?v1 ?v3)) ?v0) f1))))))
(assert (forall ((?v0 S3) (?v1 S3) (?v2 S8) (?v3 S3)) (=> (= (f3 (f4 f5 ?v0) ?v1) f1) (=> (= (f11 ?v2 ?v0) ?v3) (=> (forall ((?v4 S3) (?v5 S3)) (=> (= (f3 (f4 f5 ?v5) ?v4) f1) (= (f3 (f4 f5 (f11 ?v2 ?v5)) (f11 ?v2 ?v4)) f1))) (= (f3 (f4 f5 ?v3) (f11 ?v2 ?v1)) f1))))))
(assert (forall ((?v0 S5) (?v1 S5) (?v2 S9) (?v3 S5)) (=> (= (f8 (f9 f10 ?v0) ?v1) f1) (=> (= (f12 ?v2 ?v0) ?v3) (=> (forall ((?v4 S5) (?v5 S5)) (=> (= (f8 (f9 f10 ?v5) ?v4) f1) (= (f8 (f9 f10 (f12 ?v2 ?v5)) (f12 ?v2 ?v4)) f1))) (= (f8 (f9 f10 ?v3) (f12 ?v2 ?v1)) f1))))))
(assert (forall ((?v0 S3)) (let ((?v_0 (f4 f5 f6))) (= (= (f3 ?v_0 (f11 f13 ?v0)) f1) (= (f3 ?v_0 ?v0) f1)))))
(assert (forall ((?v0 S3)) (= (= (f3 (f4 f5 (f11 f13 ?v0)) f6) f1) (= (f3 (f4 f5 ?v0) f6) f1))))
(assert (forall ((?v0 S3)) (= (= f6 ?v0) (= ?v0 f6))))
(assert (forall ((?v0 S5)) (= (= f14 ?v0) (= ?v0 f14))))
(assert (forall ((?v0 S3)) (let ((?v_0 (f4 f5 f6))) (= (= (f3 ?v_0 (f11 f15 ?v0)) f1) (= (f3 ?v_0 ?v0) f1)))))
(assert (forall ((?v0 S3)) (= (= (f3 (f4 f5 (f11 f15 ?v0)) f6) f1) (= (f3 (f4 f5 ?v0) f6) f1))))
(assert (forall ((?v0 S3) (?v1 S3)) (=> (not (= ?v0 f6)) (=> (not (= ?v1 f6)) (= (f3 (f4 f5 f6) (f11 (f16 f17 ?v0) ?v1)) f1)))))
(assert (= (f8 (f9 f10 f14) f18) f1))
(assert (forall ((?v0 S3) (?v1 S3)) (= (= (f11 f13 ?v0) (f11 f13 ?v1)) (= ?v0 ?v1))))
(assert (forall ((?v0 S3)) (let ((?v_0 (f11 f15 ?v0))) (= (f11 f15 ?v_0) ?v_0))))
(assert (= (f11 f15 f6) f6))
(assert (forall ((?v0 S3)) (= (= (f11 f15 ?v0) f6) (= ?v0 f6))))
(assert (forall ((?v0 S3)) (= (= (f11 f13 ?v0) f6) (= ?v0 f6))))
(assert (forall ((?v0 S3)) (= (= f6 (f11 f13 ?v0)) (= ?v0 f6))))
(assert (= (f11 f13 f6) f6))
(assert (forall ((?v0 S3) (?v1 S3)) (= (= (f3 (f4 f5 (f11 f13 ?v0)) (f11 f13 ?v1)) f1) (= (f3 (f4 f5 ?v0) ?v1) f1))))
(assert (forall ((?v0 S3)) (=> (= (f3 (f4 f5 f6) ?v0) f1) (= (f11 f15 ?v0) f19))))
(assert (forall ((?v0 S3)) (= (= (f11 f15 ?v0) f19) (= (f3 (f4 f5 f6) ?v0) f1))))
(assert (= (f8 (f9 f10 f14) f20) f1))
(assert (= (f3 (f4 f5 f19) f21) f1))
(assert (forall ((?v0 S5)) (= (f8 (f9 f22 ?v0) ?v0) f1)))
(assert (forall ((?v0 S3)) (= (f3 (f4 f23 ?v0) ?v0) f1)))
(assert (= (f8 (f9 f22 f14) f24) f1))
(assert (= (f3 (f4 f23 f6) f19) f1))
(assert (not (= (f8 (f9 f22 f24) f14) f1)))
(assert (not (= (f3 (f4 f23 f19) f6) f1)))
(assert (forall ((?v0 S5)) (= (= f24 ?v0) (= ?v0 f24))))
(assert (forall ((?v0 S3)) (= (= f19 ?v0) (= ?v0 f19))))
(assert (forall ((?v0 S3) (?v1 S3)) (= (= (f3 (f4 f23 (f11 f13 ?v0)) (f11 f13 ?v1)) f1) (= (f3 (f4 f23 ?v0) ?v1) f1))))
(assert (= (f11 f13 f19) f19))
(assert (forall ((?v0 S5) (?v1 S5)) (or (= (f8 (f9 f22 ?v0) ?v1) f1) (= (f8 (f9 f22 ?v1) ?v0) f1))))
(assert (forall ((?v0 S3) (?v1 S3)) (or (= (f3 (f4 f23 ?v0) ?v1) f1) (= (f3 (f4 f23 ?v1) ?v0) f1))))
(assert (forall ((?v0 S5) (?v1 S5)) (= (= ?v0 ?v1) (and (= (f8 (f9 f22 ?v0) ?v1) f1) (= (f8 (f9 f22 ?v1) ?v0) f1)))))
(assert (forall ((?v0 S3) (?v1 S3)) (= (= ?v0 ?v1) (and (= (f3 (f4 f23 ?v0) ?v1) f1) (= (f3 (f4 f23 ?v1) ?v0) f1)))))
(assert (forall ((?v0 S5) (?v1 S5)) (=> (= ?v0 ?v1) (= (f8 (f9 f22 ?v0) ?v1) f1))))
(assert (forall ((?v0 S3) (?v1 S3)) (=> (= ?v0 ?v1) (= (f3 (f4 f23 ?v0) ?v1) f1))))
(assert (forall ((?v0 S5) (?v1 S5)) (=> (= (f8 (f9 f22 ?v0) ?v1) f1) (= (= (f8 (f9 f22 ?v1) ?v0) f1) (= ?v1 ?v0)))))
(assert (forall ((?v0 S3) (?v1 S3)) (=> (= (f3 (f4 f23 ?v0) ?v1) f1) (= (= (f3 (f4 f23 ?v1) ?v0) f1) (= ?v1 ?v0)))))
(assert (forall ((?v0 S5) (?v1 S5) (?v2 S5)) (=> (= ?v0 ?v1) (=> (= (f8 (f9 f22 ?v1) ?v2) f1) (= (f8 (f9 f22 ?v0) ?v2) f1)))))
(assert (forall ((?v0 S3) (?v1 S3) (?v2 S3)) (=> (= ?v0 ?v1) (=> (= (f3 (f4 f23 ?v1) ?v2) f1) (= (f3 (f4 f23 ?v0) ?v2) f1)))))
(assert (forall ((?v0 S5) (?v1 S5) (?v2 S5)) (let ((?v_0 (f9 f22 ?v2))) (=> (= ?v0 ?v1) (=> (= (f8 ?v_0 ?v1) f1) (= (f8 ?v_0 ?v0) f1))))))
(assert (forall ((?v0 S3) (?v1 S3) (?v2 S3)) (let ((?v_0 (f4 f23 ?v2))) (=> (= ?v0 ?v1) (=> (= (f3 ?v_0 ?v1) f1) (= (f3 ?v_0 ?v0) f1))))))
(assert (forall ((?v0 S5) (?v1 S5) (?v2 S5)) (let ((?v_0 (f9 f22 ?v0))) (=> (= (f8 ?v_0 ?v1) f1) (=> (= ?v1 ?v2) (= (f8 ?v_0 ?v2) f1))))))
(assert (forall ((?v0 S3) (?v1 S3) (?v2 S3)) (let ((?v_0 (f4 f23 ?v0))) (=> (= (f3 ?v_0 ?v1) f1) (=> (= ?v1 ?v2) (= (f3 ?v_0 ?v2) f1))))))
(assert (forall ((?v0 S5) (?v1 S5) (?v2 S5)) (=> (= (f8 (f9 f22 ?v0) ?v1) f1) (=> (= ?v0 ?v2) (= (f8 (f9 f22 ?v2) ?v1) f1)))))
(assert (forall ((?v0 S3) (?v1 S3) (?v2 S3)) (=> (= (f3 (f4 f23 ?v0) ?v1) f1) (=> (= ?v0 ?v2) (= (f3 (f4 f23 ?v2) ?v1) f1)))))
(assert (forall ((?v0 S5) (?v1 S5)) (=> (= (f8 (f9 f22 ?v0) ?v1) f1) (=> (= (f8 (f9 f22 ?v1) ?v0) f1) (= ?v0 ?v1)))))
(assert (forall ((?v0 S3) (?v1 S3)) (=> (= (f3 (f4 f23 ?v0) ?v1) f1) (=> (= (f3 (f4 f23 ?v1) ?v0) f1) (= ?v0 ?v1)))))
(assert (forall ((?v0 S5) (?v1 S5) (?v2 S5)) (let ((?v_0 (f9 f22 ?v0))) (=> (= (f8 ?v_0 ?v1) f1) (=> (= (f8 (f9 f22 ?v1) ?v2) f1) (= (f8 ?v_0 ?v2) f1))))))
(assert (forall ((?v0 S3) (?v1 S3) (?v2 S3)) (let ((?v_0 (f4 f23 ?v0))) (=> (= (f3 ?v_0 ?v1) f1) (=> (= (f3 (f4 f23 ?v1) ?v2) f1) (= (f3 ?v_0 ?v2) f1))))))
(assert (forall ((?v0 S5) (?v1 S5)) (=> (= (f8 (f9 f22 ?v0) ?v1) f1) (=> (= (f8 (f9 f22 ?v1) ?v0) f1) (= ?v1 ?v0)))))
(assert (forall ((?v0 S3) (?v1 S3)) (=> (= (f3 (f4 f23 ?v0) ?v1) f1) (=> (= (f3 (f4 f23 ?v1) ?v0) f1) (= ?v1 ?v0)))))
(assert (forall ((?v0 S5) (?v1 S5) (?v2 S5)) (let ((?v_0 (f9 f22 ?v2))) (=> (= (f8 (f9 f22 ?v0) ?v1) f1) (=> (= (f8 ?v_0 ?v0) f1) (= (f8 ?v_0 ?v1) f1))))))
(assert (forall ((?v0 S3) (?v1 S3) (?v2 S3)) (let ((?v_0 (f4 f23 ?v2))) (=> (= (f3 (f4 f23 ?v0) ?v1) f1) (=> (= (f3 ?v_0 ?v0) f1) (= (f3 ?v_0 ?v1) f1))))))
(assert (forall ((?v0 S5) (?v1 S5)) (=> (=> (= (f8 (f9 f22 ?v0) ?v1) f1) false) (=> (=> (= (f8 (f9 f22 ?v1) ?v0) f1) false) false))))
(assert (forall ((?v0 S3) (?v1 S3)) (=> (=> (= (f3 (f4 f23 ?v0) ?v1) f1) false) (=> (=> (= (f3 (f4 f23 ?v1) ?v0) f1) false) false))))
(assert (forall ((?v0 S3)) (= (= (f3 (f4 f23 f19) ?v0) f1) (= (f3 (f4 f5 f6) ?v0) f1))))
(assert (not (= f24 f14)))
(assert (not (= f19 f6)))
(assert (not (= f14 f24)))
(assert (not (= f6 f19)))
(assert (forall ((?v0 S3) (?v1 S3)) (= (not (= (f3 (f4 f5 ?v0) ?v1) f1)) (= (f3 (f4 f23 ?v1) ?v0) f1))))
(assert (forall ((?v0 S5) (?v1 S5)) (= (not (= (f8 (f9 f10 ?v0) ?v1) f1)) (= (f8 (f9 f22 ?v1) ?v0) f1))))
(assert (forall ((?v0 S3) (?v1 S3)) (= (not (= (f3 (f4 f23 ?v0) ?v1) f1)) (= (f3 (f4 f5 ?v1) ?v0) f1))))
(assert (forall ((?v0 S5) (?v1 S5)) (= (not (= (f8 (f9 f22 ?v0) ?v1) f1)) (= (f8 (f9 f10 ?v1) ?v0) f1))))
(assert (forall ((?v0 S3) (?v1 S3)) (or (= (f3 (f4 f23 ?v0) ?v1) f1) (= (f3 (f4 f5 ?v1) ?v0) f1))))
(assert (forall ((?v0 S5) (?v1 S5)) (or (= (f8 (f9 f22 ?v0) ?v1) f1) (= (f8 (f9 f10 ?v1) ?v0) f1))))
(assert (forall ((?v0 S3) (?v1 S3)) (= (= (f3 (f4 f5 ?v0) ?v1) f1) (and (= (f3 (f4 f23 ?v0) ?v1) f1) (not (= ?v0 ?v1))))))
(assert (forall ((?v0 S5) (?v1 S5)) (= (= (f8 (f9 f10 ?v0) ?v1) f1) (and (= (f8 (f9 f22 ?v0) ?v1) f1) (not (= ?v0 ?v1))))))
(assert (forall ((?v0 S3) (?v1 S3)) (= (= (f3 (f4 f5 ?v0) ?v1) f1) (and (= (f3 (f4 f23 ?v0) ?v1) f1) (not (= (f3 (f4 f23 ?v1) ?v0) f1))))))
(assert (forall ((?v0 S5) (?v1 S5)) (= (= (f8 (f9 f10 ?v0) ?v1) f1) (and (= (f8 (f9 f22 ?v0) ?v1) f1) (not (= (f8 (f9 f22 ?v1) ?v0) f1))))))
(assert (forall ((?v0 S3) (?v1 S3)) (= (= (f3 (f4 f23 ?v0) ?v1) f1) (or (= (f3 (f4 f5 ?v0) ?v1) f1) (= ?v0 ?v1)))))
(assert (forall ((?v0 S5) (?v1 S5)) (= (= (f8 (f9 f22 ?v0) ?v1) f1) (or (= (f8 (f9 f10 ?v0) ?v1) f1) (= ?v0 ?v1)))))
(assert (forall ((?v0 S3) (?v1 S3)) (=> (not (= (f3 (f4 f5 ?v0) ?v1) f1)) (= (f3 (f4 f23 ?v1) ?v0) f1))))
(assert (forall ((?v0 S5) (?v1 S5)) (=> (not (= (f8 (f9 f10 ?v0) ?v1) f1)) (= (f8 (f9 f22 ?v1) ?v0) f1))))
(assert (forall ((?v0 S3) (?v1 S3)) (=> (not (= (f3 (f4 f23 ?v0) ?v1) f1)) (= (f3 (f4 f5 ?v1) ?v0) f1))))
(assert (forall ((?v0 S5) (?v1 S5)) (=> (not (= (f8 (f9 f22 ?v0) ?v1) f1)) (= (f8 (f9 f10 ?v1) ?v0) f1))))
(assert (forall ((?v0 S3) (?v1 S3)) (=> (not (= (f3 (f4 f5 ?v0) ?v1) f1)) (= (= (f3 (f4 f23 ?v0) ?v1) f1) (= ?v0 ?v1)))))
(assert (forall ((?v0 S5) (?v1 S5)) (=> (not (= (f8 (f9 f10 ?v0) ?v1) f1)) (= (= (f8 (f9 f22 ?v0) ?v1) f1) (= ?v0 ?v1)))))
(assert (forall ((?v0 S3) (?v1 S3)) (=> (not (= ?v0 ?v1)) (=> (= (f3 (f4 f23 ?v0) ?v1) f1) (= (f3 (f4 f5 ?v0) ?v1) f1)))))
(assert (forall ((?v0 S5) (?v1 S5)) (=> (not (= ?v0 ?v1)) (=> (= (f8 (f9 f22 ?v0) ?v1) f1) (= (f8 (f9 f10 ?v0) ?v1) f1)))))
(assert (forall ((?v0 S3) (?v1 S3)) (=> (not (= ?v0 ?v1)) (=> (= (f3 (f4 f23 ?v1) ?v0) f1) (= (f3 (f4 f5 ?v1) ?v0) f1)))))
(assert (forall ((?v0 S5) (?v1 S5)) (=> (not (= ?v0 ?v1)) (=> (= (f8 (f9 f22 ?v1) ?v0) f1) (= (f8 (f9 f10 ?v1) ?v0) f1)))))
(assert (forall ((?v0 S3) (?v1 S3)) (=> (= (f3 (f4 f23 ?v0) ?v1) f1) (not (= (f3 (f4 f5 ?v1) ?v0) f1)))))
(assert (forall ((?v0 S5) (?v1 S5)) (=> (= (f8 (f9 f22 ?v0) ?v1) f1) (not (= (f8 (f9 f10 ?v1) ?v0) f1)))))
(assert (forall ((?v0 S3) (?v1 S3)) (=> (= (f3 (f4 f5 ?v0) ?v1) f1) (= (f3 (f4 f23 ?v0) ?v1) f1))))
(assert (forall ((?v0 S5) (?v1 S5)) (=> (= (f8 (f9 f10 ?v0) ?v1) f1) (= (f8 (f9 f22 ?v0) ?v1) f1))))
(assert (forall ((?v0 S3) (?v1 S3)) (=> (= (f3 (f4 f23 ?v0) ?v1) f1) (= (not (= (f3 (f4 f5 ?v0) ?v1) f1)) (= ?v0 ?v1)))))
(assert (forall ((?v0 S5) (?v1 S5)) (=> (= (f8 (f9 f22 ?v0) ?v1) f1) (= (not (= (f8 (f9 f10 ?v0) ?v1) f1)) (= ?v0 ?v1)))))
(assert (forall ((?v0 S3) (?v1 S3)) (=> (= (f3 (f4 f23 ?v0) ?v1) f1) (or (= (f3 (f4 f5 ?v0) ?v1) f1) (= ?v0 ?v1)))))
(assert (forall ((?v0 S5) (?v1 S5)) (=> (= (f8 (f9 f22 ?v0) ?v1) f1) (or (= (f8 (f9 f10 ?v0) ?v1) f1) (= ?v0 ?v1)))))
(assert (forall ((?v0 S3) (?v1 S3)) (=> (= (f3 (f4 f23 ?v0) ?v1) f1) (=> (not (= ?v0 ?v1)) (= (f3 (f4 f5 ?v0) ?v1) f1)))))
(assert (forall ((?v0 S5) (?v1 S5)) (=> (= (f8 (f9 f22 ?v0) ?v1) f1) (=> (not (= ?v0 ?v1)) (= (f8 (f9 f10 ?v0) ?v1) f1)))))
(assert (forall ((?v0 S3) (?v1 S3)) (=> (= (f3 (f4 f23 ?v0) ?v1) f1) (=> (not (= ?v1 ?v0)) (= (f3 (f4 f5 ?v0) ?v1) f1)))))
(assert (forall ((?v0 S5) (?v1 S5)) (=> (= (f8 (f9 f22 ?v0) ?v1) f1) (=> (not (= ?v1 ?v0)) (= (f8 (f9 f10 ?v0) ?v1) f1)))))
(assert (forall ((?v0 S3) (?v1 S3) (?v2 S3)) (let ((?v_0 (f4 f5 ?v0))) (=> (= (f3 ?v_0 ?v1) f1) (=> (= (f3 (f4 f23 ?v1) ?v2) f1) (= (f3 ?v_0 ?v2) f1))))))
(assert (forall ((?v0 S5) (?v1 S5) (?v2 S5)) (let ((?v_0 (f9 f10 ?v0))) (=> (= (f8 ?v_0 ?v1) f1) (=> (= (f8 (f9 f22 ?v1) ?v2) f1) (= (f8 ?v_0 ?v2) f1))))))
(check-sat)
(exit)
